\Gamma -> H -> N -> \Gamma -> P -> H -> P -> N
297
Reciprocal
0.0 0.0 0.0 1 \Gamma
0.007936507936507936 -0.007936507936507936 0.007936507936507936 1 
0.015873015873015872 -0.015873015873015872 0.015873015873015872 1 
0.023809523809523808 -0.023809523809523808 0.023809523809523808 1 
0.031746031746031744 -0.031746031746031744 0.031746031746031744 1 
0.03968253968253968 -0.03968253968253968 0.03968253968253968 1 
0.047619047619047616 -0.047619047619047616 0.047619047619047616 1 
0.05555555555555555 -0.05555555555555555 0.05555555555555555 1 
0.06349206349206349 -0.06349206349206349 0.06349206349206349 1 
0.07142857142857142 -0.07142857142857142 0.07142857142857142 1 
0.07936507936507936 -0.07936507936507936 0.07936507936507936 1 
0.0873015873015873 -0.0873015873015873 0.0873015873015873 1 
0.09523809523809523 -0.09523809523809523 0.09523809523809523 1 
0.10317460317460318 -0.10317460317460318 0.10317460317460318 1 
0.1111111111111111 -0.1111111111111111 0.1111111111111111 1 
0.11904761904761904 -0.11904761904761904 0.11904761904761904 1 
0.12698412698412698 -0.12698412698412698 0.12698412698412698 1 
0.1349206349206349 -0.1349206349206349 0.1349206349206349 1 
0.14285714285714285 -0.14285714285714285 0.14285714285714285 1 
0.15079365079365079 -0.15079365079365079 0.15079365079365079 1 
0.15873015873015872 -0.15873015873015872 0.15873015873015872 1 
0.16666666666666666 -0.16666666666666666 0.16666666666666666 1 
0.1746031746031746 -0.1746031746031746 0.1746031746031746 1 
0.18253968253968253 -0.18253968253968253 0.18253968253968253 1 
0.19047619047619047 -0.19047619047619047 0.19047619047619047 1 
0.1984126984126984 -0.1984126984126984 0.1984126984126984 1 
0.20634920634920637 -0.20634920634920637 0.20634920634920637 1 
0.2142857142857143 -0.2142857142857143 0.2142857142857143 1 
0.2222222222222222 -0.2222222222222222 0.2222222222222222 1 
0.23015873015873015 -0.23015873015873015 0.23015873015873015 1 
0.23809523809523808 -0.23809523809523808 0.23809523809523808 1 
0.24603174603174602 -0.24603174603174602 0.24603174603174602 1 
0.25396825396825395 -0.25396825396825395 0.25396825396825395 1 
0.2619047619047619 -0.2619047619047619 0.2619047619047619 1 
0.2698412698412698 -0.2698412698412698 0.2698412698412698 1 
0.2777777777777778 -0.2777777777777778 0.2777777777777778 1 
0.2857142857142857 -0.2857142857142857 0.2857142857142857 1 
0.29365079365079366 -0.29365079365079366 0.29365079365079366 1 
0.30158730158730157 -0.30158730158730157 0.30158730158730157 1 
0.30952380952380953 -0.30952380952380953 0.30952380952380953 1 
0.31746031746031744 -0.31746031746031744 0.31746031746031744 1 
0.3253968253968254 -0.3253968253968254 0.3253968253968254 1 
0.3333333333333333 -0.3333333333333333 0.3333333333333333 1 
0.3412698412698413 -0.3412698412698413 0.3412698412698413 1 
0.3492063492063492 -0.3492063492063492 0.3492063492063492 1 
0.35714285714285715 -0.35714285714285715 0.35714285714285715 1 
0.36507936507936506 -0.36507936507936506 0.36507936507936506 1 
0.373015873015873 -0.373015873015873 0.373015873015873 1 
0.38095238095238093 -0.38095238095238093 0.38095238095238093 1 
0.3888888888888889 -0.3888888888888889 0.3888888888888889 1 
0.3968253968253968 -0.3968253968253968 0.3968253968253968 1 
0.40476190476190477 -0.40476190476190477 0.40476190476190477 1 
0.41269841269841273 -0.41269841269841273 0.41269841269841273 1 
0.4206349206349207 -0.4206349206349207 0.4206349206349207 1 
0.4285714285714286 -0.4285714285714286 0.4285714285714286 1 
0.43650793650793657 -0.43650793650793657 0.43650793650793657 1 
0.4444444444444444 -0.4444444444444444 0.4444444444444444 1 
0.45238095238095244 -0.45238095238095244 0.45238095238095244 1 
0.4603174603174603 -0.4603174603174603 0.4603174603174603 1 
0.46825396825396826 -0.46825396825396826 0.46825396825396826 1 
0.47619047619047616 -0.47619047619047616 0.47619047619047616 1 
0.48412698412698413 -0.48412698412698413 0.48412698412698413 1 
0.49206349206349204 -0.49206349206349204 0.49206349206349204 1 
0.5 -0.5 0.5 1 H
0.4888888888888889 -0.4888888888888889 0.5 1 
0.47777777777777775 -0.47777777777777775 0.5 1 
0.4666666666666667 -0.4666666666666667 0.5 1 
0.45555555555555555 -0.45555555555555555 0.5 1 
0.4444444444444445 -0.4444444444444445 0.5 1 
0.43333333333333335 -0.43333333333333335 0.5 1 
0.4222222222222222 -0.4222222222222222 0.5 1 
0.41111111111111115 -0.41111111111111115 0.5 1 
0.4 -0.4 0.5 1 
0.3888888888888889 -0.3888888888888889 0.5 1 
0.37777777777777777 -0.37777777777777777 0.5 1 
0.36666666666666664 -0.36666666666666664 0.5 1 
0.3555555555555555 -0.3555555555555555 0.49999999999999994 1 
0.3444444444444445 -0.3444444444444445 0.5 1 
0.33333333333333337 -0.33333333333333337 0.5 1 
0.32222222222222224 -0.32222222222222224 0.5 1 
0.3111111111111111 -0.3111111111111111 0.5 1 
0.3 -0.3 0.5 1 
0.28888888888888886 -0.28888888888888886 0.5 1 
0.2777777777777778 -0.2777777777777778 0.5 1 
0.26666666666666666 -0.26666666666666666 0.5 1 
0.25555555555555554 -0.25555555555555554 0.5 1 
0.2444444444444445 -0.2444444444444445 0.5 1 
0.23333333333333336 -0.23333333333333336 0.5 1 
0.22222222222222224 -0.22222222222222224 0.5 1 
0.21111111111111114 -0.21111111111111114 0.5 1 
0.2 -0.2 0.5 1 
0.18888888888888888 -0.18888888888888888 0.5 1 
0.17777777777777776 -0.17777777777777776 0.5 1 
0.16666666666666674 -0.16666666666666674 0.5 1 
0.15555555555555553 -0.15555555555555553 0.5 1 
0.1444444444444445 -0.1444444444444445 0.5 1 
0.1333333333333334 -0.1333333333333334 0.5 1 
0.12222222222222225 -0.12222222222222225 0.5 1 
0.11111111111111112 -0.11111111111111112 0.5 1 
0.09999999999999999 -0.09999999999999999 0.5 1 
0.08888888888888886 -0.08888888888888886 0.5 1 
0.07777777777777774 -0.07777777777777774 0.5 1 
0.06666666666666661 -0.06666666666666661 0.5 1 
0.05555555555555558 -0.05555555555555558 0.5 1 
0.04444444444444445 -0.04444444444444445 0.5 1 
0.033333333333333326 -0.033333333333333326 0.5 1 
0.022222222222222195 -0.022222222222222195 0.5 1 
0.011111111111111132 -0.011111111111111132 0.5 1 
5.7101669374820905e-18 -5.7101669374820905e-18 0.5 1 N
5.748330303229565e-18 -5.748330303229565e-18 0.4888888888888889 1 
5.78649366897704e-18 -5.78649366897704e-18 0.47777777777777775 1 
1.3408577879801344e-17 -1.3408577879801344e-17 0.4666666666666667 1 
1.3446741245548818e-17 -1.3446741245548818e-17 0.45555555555555555 1 
1.3484904611296293e-17 -1.3484904611296293e-17 0.4444444444444444 1 
1.3523067977043767e-17 -1.3523067977043767e-17 0.4333333333333333 1 
-6.610423427760842e-18 6.610423427760842e-18 0.4222222222222223 1 
-6.5722600620133676e-18 6.5722600620133676e-18 0.41111111111111115 1 
-6.534096696265893e-18 6.534096696265893e-18 0.4 1 
-6.4959333305184184e-18 6.4959333305184184e-18 0.3888888888888889 1 
-6.457769964770944e-18 6.457769964770944e-18 0.37777777777777777 1 
1.1643142460533601e-18 -1.1643142460533601e-18 0.3666666666666667 1 
1.2024776118008347e-18 -1.2024776118008347e-18 0.35555555555555557 1 
1.2406409775483093e-18 -1.2406409775483093e-18 0.34444444444444444 1 
8.862725188372613e-18 -8.862725188372613e-18 0.33333333333333337 1 
8.900888554120088e-18 -8.900888554120088e-18 0.32222222222222224 1 
8.939051919867562e-18 -8.939051919867562e-18 0.3111111111111111 1 
8.977215285615037e-18 -8.977215285615037e-18 0.3 1 
9.015378651362512e-18 -9.015378651362512e-18 0.28888888888888886 1 
-1.0322853681660559e-18 1.0322853681660559e-18 0.2777777777777778 1 
-9.941220024185813e-19 9.941220024185813e-19 0.26666666666666666 1 
-1.1041786021947149e-17 1.1041786021947149e-17 0.2555555555555556 1 
6.666125574153197e-18 -6.666125574153197e-18 0.24444444444444446 1 
6.704288939900672e-18 -6.704288939900672e-18 0.23333333333333334 1 
6.7424523056481464e-18 -6.7424523056481464e-18 0.2222222222222222 1 
-3.305211713880421e-18 3.305211713880421e-18 0.21111111111111114 1 
-3.2670483481329465e-18 3.2670483481329465e-18 0.2 1 
-3.228884982385472e-18 3.228884982385472e-18 0.18888888888888888 1 
-3.1907216166379973e-18 3.1907216166379973e-18 0.17777777777777776 1 
4.4313625941863066e-18 -4.4313625941863066e-18 0.16666666666666669 1 
4.469525959933781e-18 -4.469525959933781e-18 0.15555555555555556 1 
4.507689325681256e-18 -4.507689325681256e-18 0.14444444444444443 1 
-1.748014271308897e-18 1.748014271308897e-18 0.1333333333333334 1 
-1.7098509055614224e-18 1.7098509055614224e-18 0.12222222222222226 1 
-1.6716875398139478e-18 1.6716875398139478e-18 0.11111111111111113 1 
-1.6335241740664733e-18 1.6335241740664733e-18 0.1 1 
-1.5953608083189987e-18 1.5953608083189987e-18 0.08888888888888888 1 
-1.557197442571524e-18 1.557197442571524e-18 0.07777777777777775 1 
-1.5190340768240495e-18 1.5190340768240495e-18 0.06666666666666662 1 
-8.358437699069739e-19 8.358437699069739e-19 0.055555555555555566 1 
-7.976804041594993e-19 7.976804041594993e-19 0.04444444444444444 1 
-7.595170384120247e-19 7.595170384120247e-19 0.03333333333333331 1 
-7.213536726645501e-19 7.213536726645501e-19 0.022222222222222185 1 
-3.81633657474746e-20 3.81633657474746e-20 0.011111111111111127 1 
0.0 0.0 0.0 1 \Gamma
0.004545454545454545 0.004545454545454545 0.004545454545454545 1 
0.00909090909090909 0.00909090909090909 0.00909090909090909 1 
0.013636363636363637 0.013636363636363636 0.013636363636363636 1 
0.01818181818181818 0.01818181818181818 0.01818181818181818 1 
0.022727272727272728 0.022727272727272728 0.022727272727272728 1 
0.027272727272727275 0.02727272727272727 0.02727272727272727 1 
0.03181818181818182 0.031818181818181815 0.031818181818181815 1 
0.03636363636363636 0.03636363636363636 0.03636363636363636 1 
0.040909090909090916 0.04090909090909091 0.04090909090909091 1 
0.045454545454545456 0.045454545454545456 0.045454545454545456 1 
0.05 0.05 0.05 1 
0.05454545454545455 0.05454545454545454 0.05454545454545454 1 
0.05909090909090909 0.05909090909090909 0.05909090909090909 1 
0.06363636363636364 0.06363636363636363 0.06363636363636363 1 
0.06818181818181818 0.06818181818181818 0.06818181818181818 1 
0.07272727272727272 0.07272727272727272 0.07272727272727272 1 
0.07727272727272727 0.07727272727272727 0.07727272727272727 1 
0.08181818181818183 0.08181818181818182 0.08181818181818182 1 
0.08636363636363635 0.08636363636363636 0.08636363636363636 1 
0.09090909090909091 0.09090909090909091 0.09090909090909091 1 
0.09545454545454546 0.09545454545454547 0.09545454545454547 1 
0.1 0.1 0.1 1 
0.10454545454545454 0.10454545454545454 0.10454545454545454 1 
0.1090909090909091 0.10909090909090909 0.10909090909090909 1 
0.11363636363636362 0.11363636363636363 0.11363636363636363 1 
0.11818181818181818 0.11818181818181818 0.11818181818181818 1 
0.12272727272727273 0.12272727272727274 0.12272727272727274 1 
0.1272727272727273 0.12727272727272726 0.12727272727272726 1 
0.1318181818181818 0.1318181818181818 0.1318181818181818 1 
0.13636363636363635 0.13636363636363635 0.13636363636363635 1 
0.1409090909090909 0.1409090909090909 0.1409090909090909 1 
0.14545454545454545 0.14545454545454545 0.14545454545454545 1 
0.15000000000000002 0.15 0.15 1 
0.15454545454545454 0.15454545454545454 0.15454545454545454 1 
0.1590909090909091 0.1590909090909091 0.1590909090909091 1 
0.16363636363636366 0.16363636363636364 0.16363636363636364 1 
0.16818181818181818 0.16818181818181818 0.16818181818181818 1 
0.1727272727272727 0.17272727272727273 0.17272727272727273 1 
0.1772727272727273 0.17727272727272728 0.17727272727272728 1 
0.18181818181818182 0.18181818181818182 0.18181818181818182 1 
0.18636363636363634 0.18636363636363637 0.18636363636363637 1 
0.19090909090909092 0.19090909090909094 0.19090909090909094 1 
0.19545454545454546 0.19545454545454546 0.19545454545454546 1 
0.2 0.2 0.2 1 
0.20454545454545456 0.20454545454545459 0.20454545454545459 1 
0.20909090909090908 0.20909090909090908 0.20909090909090908 1 
0.2136363636363636 0.21363636363636362 0.21363636363636362 1 
0.2181818181818182 0.21818181818181817 0.21818181818181817 1 
0.22272727272727272 0.22272727272727272 0.22272727272727272 1 
0.22727272727272724 0.22727272727272727 0.22727272727272727 1 
0.2318181818181818 0.23181818181818184 0.23181818181818184 1 
0.23636363636363636 0.23636363636363636 0.23636363636363636 1 
0.24090909090909088 0.2409090909090909 0.2409090909090909 1 
0.24545454545454545 0.24545454545454548 0.24545454545454548 1 
0.25 0.25 0.25 1 P
0.2545454545454545 0.23636363636363641 0.2545454545454545 1 
0.2590909090909091 0.2227272727272727 0.2590909090909091 1 
0.26363636363636367 0.20909090909090908 0.2636363636363636 1 
0.2681818181818182 0.1954545454545455 0.2681818181818182 1 
0.2727272727272727 0.18181818181818185 0.2727272727272727 1 
0.2772727272727273 0.16818181818181815 0.2772727272727273 1 
0.28181818181818186 0.1545454545454545 0.2818181818181818 1 
0.2863636363636364 0.14090909090909093 0.2863636363636364 1 
0.29090909090909095 0.1272727272727272 0.29090909090909095 1 
0.29545454545454547 0.1136363636363636 0.29545454545454547 1 
0.3 0.10000000000000002 0.3 1 
0.30454545454545456 0.08636363636363639 0.3045454545454545 1 
0.3090909090909091 0.0727272727272728 0.3090909090909091 1 
0.31363636363636366 0.059090909090909076 0.31363636363636366 1 
0.3181818181818182 0.04545454545454547 0.3181818181818182 1 
0.32272727272727275 0.03181818181818184 0.3227272727272727 1 
0.32727272727272727 0.01818181818181815 0.32727272727272727 1 
0.3318181818181819 0.0045454545454544915 0.3318181818181818 1 
0.33636363636363636 -0.009090909090909084 0.33636363636363636 1 
0.34090909090909094 -0.02272727272727276 0.3409090909090909 1 
0.3454545454545454 -0.03636363636363635 0.34545454545454546 1 
0.35000000000000003 -0.05000000000000001 0.35 1 
0.35454545454545455 -0.06363636363636364 0.35454545454545455 1 
0.35909090909090907 -0.07727272727272726 0.35909090909090907 1 
0.36363636363636365 -0.09090909090909088 0.36363636363636365 1 
0.3681818181818181 -0.10454545454545448 0.36818181818181817 1 
0.37272727272727274 -0.11818181818181818 0.37272727272727274 1 
0.3772727272727273 -0.13181818181818183 0.37727272727272726 1 
0.38181818181818183 -0.14545454545454542 0.3818181818181818 1 
0.38636363636363635 -0.15909090909090906 0.38636363636363635 1 
0.3909090909090909 -0.17272727272727265 0.3909090909090909 1 
0.39545454545454545 -0.18636363636363634 0.39545454545454545 1 
0.39999999999999997 -0.19999999999999998 0.4 1 
0.40454545454545454 -0.21363636363636362 0.40454545454545454 1 
0.4090909090909091 -0.22727272727272727 0.40909090909090906 1 
0.41363636363636364 -0.2409090909090909 0.41363636363636364 1 
0.41818181818181815 -0.25454545454545446 0.4181818181818181 1 
0.42272727272727273 -0.2681818181818182 0.42272727272727273 1 
0.4272727272727273 -0.2818181818181819 0.4272727272727273 1 
0.4318181818181819 -0.2954545454545455 0.4318181818181818 1 
0.4363636363636364 -0.3090909090909091 0.43636363636363634 1 
0.440909090909091 -0.3227272727272728 0.4409090909090909 1 
0.4454545454545455 -0.33636363636363636 0.44545454545454544 1 
0.45 -0.35000000000000003 0.45 1 
0.4545454545454546 -0.36363636363636376 0.4545454545454546 1 
0.4590909090909091 -0.3772727272727272 0.45909090909090905 1 
0.46363636363636357 -0.3909090909090908 0.4636363636363636 1 
0.46818181818181814 -0.40454545454545454 0.4681818181818182 1 
0.4727272727272727 -0.41818181818181815 0.4727272727272727 1 
0.4772727272727273 -0.43181818181818177 0.47727272727272724 1 
0.48181818181818187 -0.4454545454545455 0.4818181818181818 1 
0.4863636363636364 -0.45909090909090905 0.48636363636363633 1 
0.49090909090909085 -0.47272727272727266 0.4909090909090909 1 
0.4954545454545454 -0.4863636363636364 0.4954545454545455 1 
0.5 -0.5 0.5 1 H
0.25 0.25 0.25 1 P
0.2421875 0.2421875 0.2578125 1 
0.234375 0.23437499999999997 0.265625 1 
0.22656250000000003 0.2265625 0.2734375 1 
0.21875 0.21875 0.28125 1 
0.2109375 0.2109375 0.2890625 1 
0.20312500000000003 0.20312500000000003 0.296875 1 
0.19531250000000003 0.1953125 0.3046875 1 
0.1875 0.1875 0.3125 1 
0.1796875 0.1796875 0.3203125 1 
0.171875 0.17187499999999997 0.328125 1 
0.16406250000000003 0.1640625 0.3359375 1 
0.15625 0.15625 0.34375 1 
0.1484375 0.1484375 0.3515625 1 
0.140625 0.140625 0.359375 1 
0.13281250000000003 0.1328125 0.3671875 1 
0.125 0.125 0.375 1 
0.1171875 0.11718749999999999 0.3828125 1 
0.10937500000000001 0.109375 0.390625 1 
0.10156250000000001 0.1015625 0.3984375 1 
0.09375000000000001 0.09375 0.40625 1 
0.0859375 0.08593749999999999 0.4140625 1 
0.07812500000000003 0.07812500000000001 0.421875 1 
0.07031250000000001 0.0703125 0.4296875 1 
0.06250000000000001 0.06249999999999999 0.4375 1 
0.0546875 0.054687499999999986 0.4453125 1 
0.046874999999999986 0.04687499999999998 0.453125 1 
0.039062500000000014 0.03906250000000001 0.4609375 1 
0.03125000000000001 0.031249999999999997 0.46875 1 
0.023437499999999997 0.023437499999999986 0.4765625 1 
0.015625000000000024 0.015625000000000014 0.484375 1 
0.007812500000000014 0.007812500000000003 0.4921875 1 
5.7101669374820905e-18 -5.7101669374820905e-18 0.5 1 N
